100 6 100
80 97 87 66 40 55 90 5 49 73 81 88 33 31 66 33 60 70 12 99 39 67 95 87 11 18 50 67 72 70 85 4 67 25 70 59 80 12 64 30 86 97 70 19 29 88 4 89 59 68 40 50 36 87 37 99 5 87 18 29 9 4 34 76 29 56 35 9 69 52 91 55 49 61 26 78 50 31 20 61 51 12 63 87 38 5 40 57 35 49 61 21 78 42 77 65 3 46 17 95 
